robust/generate/spp_dkp_Lefebvre_et_al_2026/src/shortest_path_7_9.kp
51
151

[3.0 0.2 1.52 2.86 1.26 4.22 0.7 1.72 2.62 2.17 0.77 0.97 2.87 1.11 1.82 0.21 1.44 1.3 1.98 0.27 3.35 3.24 2.51 3.17 2.59 2.84 3.53 3.86 1.55 1.37 2.68 1.65 3.84 3.16]

[6 63 43 43 45 77 26 13 27 46 96 10 16 62 98 76 56 39 61 83 58 4 54 84 27 8 43 51 39 88 67 73 52 31]
